c FILE /home/rafael/Documents/HappySet/MIHS/inputs/happygen/output/graph_scale_free_k5_p0.5_v100_20241127_083848.txt
c SOURCE This is a scale-free graph formed for the happy graph colouring problem.
c DESCRIPTION It was generated using the problem generator of Rhyd Lewis
c
c GRAPH STATS
c Seed                             = 928989565
c Number of Nodes                  = 100
c Number of colours k              = 5
c Number of pre-assignments        = 50
c Number of links per new node     = 5
c Density                          = 0.0979798
c 
c The degrees of nodes 1 to 100, respectively, are as follows 
c [35, 31, 29, 29, 25, 25, 24, 22, 21, 21, 20, 20, 19, 18, 16, 15, 14, 14, 14, 13, 13, 12, 12, 11, 11, 11, 
c  10, 10, 10, 10, 9, 9, 8, 8, 8, 8, 8, 8, 8, 8, 8, 7, 7, 7, 7, 7, 7, 7, 7, 7, 7, 
c  7, 7, 7, 7, 7, 7, 7, 7, 6, 6, 6, 6, 6, 6, 6, 6, 6, 6, 6, 6, 6, 6, 5, 5, 5, 
c  5, 5, 5, 5, 5, 5, 5, 5, 5, 5, 5, 5, 5, 5, 5, 5, 5, 5, 5, 5, 5, 5, 5, 5] 
c  
p edge 100 485 5
e 1 2
e 1 3
e 1 4
e 1 5
e 1 6
e 1 7
e 1 8
e 1 11
e 1 12
e 1 13
e 1 15
e 1 16
e 1 17
e 1 18
e 1 19
e 1 20
e 1 23
e 1 25
e 1 26
e 1 28
e 1 30
e 1 34
e 1 42
e 1 46
e 1 47
e 1 48
e 1 49
e 1 54
e 1 59
e 1 65
e 1 76
e 1 79
e 1 89
e 1 94
e 1 99
e 2 3
e 2 4
e 2 5
e 2 6
e 2 11
e 2 12
e 2 13
e 2 15
e 2 16
e 2 20
e 2 24
e 2 25
e 2 26
e 2 27
e 2 29
e 2 35
e 2 42
e 2 46
e 2 54
e 2 57
e 2 61
e 2 64
e 2 66
e 2 74
e 2 84
e 2 86
e 2 91
e 2 94
e 2 96
e 2 99
e 3 4
e 3 5
e 3 6
e 3 11
e 3 12
e 3 16
e 3 18
e 3 19
e 3 21
e 3 29
e 3 33
e 3 34
e 3 35
e 3 37
e 3 40
e 3 42
e 3 43
e 3 53
e 3 61
e 3 62
e 3 68
e 3 69
e 3 72
e 3 74
e 3 77
e 3 84
e 3 100
e 4 5
e 4 6
e 4 7
e 4 8
e 4 10
e 4 11
e 4 12
e 4 13
e 4 16
e 4 19
e 4 24
e 4 25
e 4 27
e 4 28
e 4 33
e 4 38
e 4 42
e 4 43
e 4 45
e 4 48
e 4 50
e 4 51
e 4 68
e 4 76
e 4 77
e 4 93
e 5 7
e 5 8
e 5 11
e 5 19
e 5 21
e 5 24
e 5 31
e 5 33
e 5 34
e 5 36
e 5 39
e 5 41
e 5 44
e 5 50
e 5 54
e 5 60
e 5 65
e 5 71
e 5 80
e 5 83
e 5 99
e 6 7
e 6 10
e 6 11
e 6 14
e 6 17
e 6 20
e 6 22
e 6 31
e 6 36
e 6 37
e 6 46
e 6 51
e 6 54
e 6 56
e 6 58
e 6 62
e 6 64
e 6 73
e 6 77
e 6 87
e 6 100
e 7 9
e 7 13
e 7 18
e 7 24
e 7 27
e 7 28
e 7 31
e 7 39
e 7 43
e 7 44
e 7 49
e 7 51
e 7 52
e 7 62
e 7 66
e 7 71
e 7 72
e 7 74
e 7 89
e 7 93
e 8 9
e 8 10
e 8 11
e 8 12
e 8 14
e 8 16
e 8 21
e 8 28
e 8 35
e 8 37
e 8 40
e 8 43
e 8 44
e 8 50
e 8 60
e 8 68
e 8 76
e 8 78
e 8 99
e 9 11
e 9 12
e 9 16
e 9 19
e 9 28
e 9 29
e 9 31
e 9 35
e 9 41
e 9 43
e 9 52
e 9 55
e 9 57
e 9 60
e 9 63
e 9 65
e 9 80
e 9 90
e 9 97
e 10 11
e 10 15
e 10 18
e 10 21
e 10 30
e 10 33
e 10 39
e 10 45
e 10 51
e 10 61
e 10 67
e 10 70
e 10 81
e 10 86
e 10 87
e 10 88
e 10 92
e 10 98
e 11 13
e 11 15
e 11 16
e 11 17
e 11 22
e 11 27
e 11 32
e 11 35
e 11 41
e 11 62
e 11 73
e 12 13
e 12 20
e 12 22
e 12 24
e 12 27
e 12 33
e 12 36
e 12 38
e 12 42
e 12 45
e 12 58
e 12 82
e 12 85
e 12 95
e 13 14
e 13 20
e 13 22
e 13 29
e 13 34
e 13 41
e 13 55
e 13 60
e 13 62
e 13 79
e 13 85
e 13 94
e 13 98
e 14 19
e 14 23
e 14 30
e 14 35
e 14 36
e 14 39
e 14 46
e 14 48
e 14 49
e 14 52
e 14 53
e 14 79
e 14 80
e 14 83
e 14 87
e 15 16
e 15 29
e 15 40
e 15 48
e 15 49
e 15 53
e 15 63
e 15 69
e 15 70
e 15 75
e 15 90
e 15 93
e 16 21
e 16 22
e 16 32
e 16 47
e 16 53
e 16 63
e 16 69
e 17 24
e 17 26
e 17 27
e 17 44
e 17 47
e 17 77
e 17 80
e 17 81
e 17 82
e 17 85
e 17 96
e 18 20
e 18 23
e 18 30
e 18 37
e 18 68
e 18 72
e 18 76
e 18 81
e 18 82
e 18 86
e 19 36
e 19 38
e 19 51
e 19 68
e 19 79
e 19 88
e 19 93
e 19 95
e 20 21
e 20 25
e 20 59
e 20 61
e 20 63
e 20 86
e 20 98
e 21 38
e 21 45
e 21 57
e 21 75
e 21 78
e 21 90
e 21 92
e 22 34
e 22 50
e 22 55
e 22 60
e 22 70
e 22 75
e 22 80
e 23 32
e 23 34
e 23 39
e 23 41
e 23 52
e 23 56
e 23 65
e 23 71
e 23 74
e 24 25
e 24 47
e 24 52
e 24 71
e 24 85
e 25 37
e 25 44
e 25 63
e 25 65
e 25 67
e 25 75
e 26 30
e 26 42
e 26 73
e 26 78
e 26 81
e 26 84
e 26 95
e 26 100
e 27 39
e 27 45
e 27 58
e 27 67
e 28 32
e 28 61
e 28 64
e 28 82
e 28 98
e 29 56
e 29 66
e 29 83
e 29 88
e 29 97
e 30 32
e 30 34
e 30 67
e 30 89
e 30 92
e 31 40
e 31 44
e 31 48
e 31 56
e 31 70
e 32 66
e 32 70
e 32 79
e 32 94
e 33 47
e 33 84
e 33 88
e 34 92
e 35 71
e 35 96
e 36 59
e 36 78
e 36 89
e 37 38
e 37 59
e 37 72
e 38 53
e 38 75
e 38 76
e 39 69
e 39 85
e 40 49
e 40 50
e 40 74
e 40 91
e 41 81
e 41 91
e 41 96
e 42 64
e 43 46
e 43 83
e 44 83
e 45 67
e 45 100
e 46 55
e 46 66
e 47 49
e 47 55
e 48 78
e 48 96
e 49 77
e 50 87
e 50 90
e 51 57
e 51 91
e 52 95
e 52 97
e 53 58
e 53 94
e 54 64
e 54 86
e 54 98
e 55 84
e 55 95
e 56 57
e 56 60
e 56 93
e 57 90
e 57 99
e 58 70
e 58 88
e 58 89
e 59 68
e 59 72
e 59 91
e 61 87
e 62 82
e 63 64
e 65 69
e 66 92
e 67 73
e 69 97
e 71 97
e 72 73
e 73 100
n 15 2
n 16 2
n 25 2
n 27 5
n 28 5
n 29 2
n 30 4
n 34 4
n 35 1
n 36 4
n 39 5
n 40 2
n 41 3
n 42 4
n 43 3
n 44 2
n 45 5
n 46 3
n 47 2
n 48 2
n 50 2
n 51 5
n 52 1
n 56 2
n 59 4
n 60 2
n 62 4
n 63 2
n 65 2
n 68 4
n 70 2
n 71 1
n 72 4
n 75 2
n 76 3
n 77 4
n 80 2
n 84 3
n 85 5
n 86 5
n 87 2
n 89 4
n 90 2
n 92 4
n 93 2
n 94 1
n 95 1
n 98 5
n 99 3
n 100 5
